p cnf 10984 50
1485 485 1
6094 5094 0
7326 6326 0
5506 4506 0
10248 9248 0
5416 4416 0
6421 5421 0
1992 992 1
1322 322 1
7649 6649 0
6795 5795 0
10237 9237 0
9043 8043 0
7457 6457 0
3845 2845 0
8815 7815 0
5955 4955 0
10446 9446 0
10252 9252 0
4422 3422 0
2009 1009 1
9791 8791 0
6901 5901 0
10359 9359 0
2122 1122 1
6667 5667 0
2094 1094 1
2598 1598 1
9738 8738 0
3007 2007 1
9574 8574 0
1544 544 1
6715 5715 0
6334 5334 0
9882 8882 0
3766 2766 0
2367 1367 0
4994 3994 0
10984 9984 0
10893 9893 0
4299 3299 0
3633 2633 0
10433 9433 0
8131 7131 0
6682 5682 0
6428 5428 0
1072 72 1
7700 6700 0
8874 7874 0
1617 617 1